SPARKNaCl/why3-z3/sparknacl-scalar.adb_49_24_range_check2_1.smt2
;; produced by z3_gnatprove.drv ;;
(set-info :smt-lib-version 2.5)
(set-info :source |VC generated by SPARK 2014|)
(set-info :category industrial)
(set-info :status unknown)
;;; generated by SMT-LIB2 driver
;;; SMT-LIB2 driver: bit-vectors, common part
;;; SMT-LIB2: integer arithmetic
(declare-datatypes ()
  ((int__ref (int__refqtmk (int__content Int)))))

(declare-datatypes ()
  ((bool__ref (bool__refqtmk (bool__content Bool)))))

;; "length"
(define-fun length ((x Int) (y Int)) Int
  (ite (<= x y) (+ (- y x) 1) 0))

(declare-datatypes ()
  ((t__ref (t__refqtmk (t__content (_ BitVec 8))))))

(declare-datatypes ()
  ((t__ref1 (t__refqtmk1 (t__content1 (_ BitVec 32))))))

;; "in_range"
(define-fun in_range ((x Int)) Bool
  (and (<= 0 x) (<= x 2147483647)))

(declare-sort byte 0)

;; "to_rep"
(declare-fun to_rep (byte) (_ BitVec 8))

;; "of_rep"
(declare-fun of_rep ((_ BitVec 8)) byte)

;; "inversion_axiom"
(assert
  (forall ((x byte)) (! (= (of_rep (to_rep x)) x) :pattern ((to_rep x)) )))

;; "range_axiom"
(assert true)

;; "coerce_axiom"
(assert
  (forall ((x (_ BitVec 8)))
    (! (= (to_rep (of_rep x)) x) :pattern ((to_rep (of_rep x))) )))

(declare-sort map1 0)

(declare-datatypes ()
  ((map__ref (map__refqtmk (map__content map1)))))

;; "has_bounds"
(declare-fun has_bounds (map1
  Int
  Int) Bool)

;; "get"
(declare-fun get (map1
  Int) byte)

;; "slide"
(declare-fun slide (map1
  Int
  Int) map1)

;; "slide_eq"
(assert
  (forall ((a map1) (first Int))
    (! (= (slide a first first) a) :pattern ((slide a first first)) )))

;; "slide_def"
(assert
  (forall ((a map1) (old_first Int) (new_first Int))
    (! (and
         (forall ((i Int))
           (! (= (get (slide a old_first new_first) i) (get
                                                         a
                                                         (- i (- new_first old_first)))) :pattern (
           (get
             (slide a old_first new_first)
             i)) ))
         (forall ((new_last Int))
           (! (=>
                (has_bounds a old_first (- new_last (- new_first old_first)))
                (has_bounds (slide a old_first new_first) new_first new_last)) :pattern (
           (has_bounds
             (slide a old_first new_first)
             new_first
             new_last)) ))) :pattern ((slide a old_first new_first)) )))

;; "slice"
(declare-fun slice (map1
  Int
  Int) map1)

;; "slice_eq"
(assert
  (forall ((a map1) (f Int) (l Int))
    (! (=> (has_bounds a f l) (= (slice a f l) a)) :pattern ((slice a f l)
    (has_bounds a f l)) )))

;; "slice_slice"
(assert
  (forall ((a map1) (f1 Int) (l1 Int) (f2 Int) (l2 Int))
    (! (=>
         (and (<= f1 f2) (<= l2 l1))
         (= (slice (slice a f1 l1) f2 l2) (slice a f2 l2))) :pattern (
    (slice
      (slice a f1 l1)
      f2
      l2)) )))

;; "slice_def"
(assert
  (forall ((a map1) (f Int) (l Int))
    (! (forall ((i Int))
         (! (=> (and (<= f i) (<= i l)) (= (get (slice a f l) i) (get a i))) :pattern (
         (get
           (slice a f l)
           i)) :pattern ((get a i)) )) :pattern ((slice a f l)) )))

;; "slice_has_bounds"
(assert
  (forall ((a map1) (f Int) (l Int))
    (! (has_bounds (slice a f l) f l) :pattern ((has_bounds
                                                  (slice a f l)
                                                  f
                                                  l)) )))

;; "concat_singleton_left"
(declare-fun concat_singleton_left (byte
  Int
  map1
  Int
  Int
  Int) map1)

;; "concat_singleton_left_def"
(assert
  (forall ((a byte) (b map1) (a_first Int) (b_first Int) (b_last Int) (new_last Int))
    (! (and
         (=>
           (<= a_first new_last)
           (has_bounds
             (concat_singleton_left a a_first b b_first b_last new_last)
             a_first
             new_last))
         (and
           (= (get
                (concat_singleton_left a a_first b b_first b_last new_last)
                a_first) a)
           (forall ((i Int))
             (! (=>
                  (and (< a_first i) (<= i new_last))
                  (= (get
                       (concat_singleton_left
                         a
                         a_first
                         b
                         b_first
                         b_last
                         new_last)
                       i) (get b (+ (- i a_first) (- b_first 1))))) :pattern (
             (get
               (concat_singleton_left a a_first b b_first b_last new_last)
               i)) )))) :pattern ((concat_singleton_left
                                    a
                                    a_first
                                    b
                                    b_first
                                    b_last
                                    new_last)) )))

;; "concat_singleton_left_def_eq"
(assert
  (forall ((a byte) (b map1) (a_first Int) (b_last Int) (new_last Int) (i Int))
    (! (=>
         (and (< a_first i) (<= i new_last))
         (= (get
              (concat_singleton_left a a_first b a_first b_last new_last)
              i) (get b (- i 1)))) :pattern ((get
                                               (concat_singleton_left
                                                 a
                                                 a_first
                                                 b
                                                 a_first
                                                 b_last
                                                 new_last)
                                               i)) )))

;; "concat_singleton_right"
(declare-fun concat_singleton_right (map1
  Int
  Int
  byte
  Int) map1)

;; "concat_singleton_right_def"
(assert
  (forall ((a map1) (b byte) (a_first Int) (a_last Int) (new_last Int))
    (! (and
         (=>
           (and (<= a_first a_last) (< a_last new_last))
           (=>
             (has_bounds a a_first a_last)
             (has_bounds
               (concat_singleton_right a a_first a_last b new_last)
               a_first
               new_last)))
         (and
           (=>
             (< a_last (+ a_last 1))
             (= (get
                  (concat_singleton_right a a_first a_last b new_last)
                  (+ a_last 1)) b))
           (forall ((i Int))
             (! (=>
                  (and (<= a_first i) (<= i a_last))
                  (= (get
                       (concat_singleton_right a a_first a_last b new_last)
                       i) (get a i))) :pattern ((get
                                                  (concat_singleton_right
                                                    a
                                                    a_first
                                                    a_last
                                                    b
                                                    new_last)
                                                  i)) :pattern ((get a i)) )))) :pattern (
    (concat_singleton_right
      a
      a_first
      a_last
      b
      new_last)) )))

;; "singleton"
(declare-fun singleton1 (byte
  Int) map1)

;; "singleton_bounds"
(assert
  (forall ((v byte) (i Int))
    (! (and (has_bounds (singleton1 v i) i i) (= (get (singleton1 v i) i) v)) :pattern (
    (singleton1
      v
      i)) )))

(declare-const n map1)

(declare-const p map1)

(declare-sort gf16_normal_limb 0)

;; "to_rep"
(declare-fun to_rep1 (gf16_normal_limb) (_ BitVec 16))

;; "of_rep"
(declare-fun of_rep1 ((_ BitVec 16)) gf16_normal_limb)

;; "inversion_axiom"
(assert
  (forall ((x gf16_normal_limb))
    (! (= (of_rep1 (to_rep1 x)) x) :pattern ((to_rep1 x)) )))

;; "range_axiom"
(assert true)

;; "coerce_axiom"
(assert
  (forall ((x (_ BitVec 16)))
    (! (= (to_rep1 (of_rep1 x)) x) :pattern ((to_rep1 (of_rep1 x))) )))

(declare-sort map2 0)

(declare-datatypes ()
  ((map__ref1 (map__refqtmk1 (map__content1 map2)))))

;; "has_bounds"
(declare-fun has_bounds1 (map2
  Int
  Int) Bool)

;; "get"
(declare-fun get1 (map2
  Int) gf16_normal_limb)

(declare-const gf_121665 map2)

;; "unpack_25519"
(declare-fun unpack_25519 (map1) map2)

;; "unpack_25519__function_guard"
(declare-fun unpack_25519__function_guard (map2
  map1) Bool)

(declare-const gf_0 map2)

(declare-const gf_1 map2)

(declare-sort tinteger_32B 0)

;; "tinteger_32B'int"
(declare-fun tinteger_32Bqtint (tinteger_32B) Int)

;; "tinteger_32B'axiom"
(assert
  (forall ((i tinteger_32B))
    (and
      (<= (- 2147483648) (tinteger_32Bqtint i))
      (<= (tinteger_32Bqtint i) 2147483647))))

;; "in_range"
(define-fun in_range1 ((x Int)) Bool
  (and (<= (- 2147483648) x) (<= x 2147483647)))

;; "to_rep"
(define-fun to_rep2 ((x tinteger_32B)) Int
  (tinteger_32Bqtint x))

;; "of_rep"
(declare-fun of_rep2 (Int) tinteger_32B)

;; "inversion_axiom"
(assert
  (forall ((x tinteger_32B))
    (! (= (of_rep2 (to_rep2 x)) x) :pattern ((to_rep2 x)) )))

;; "range_axiom"
(assert
  (forall ((x tinteger_32B))
    (! (in_range1 (to_rep2 x)) :pattern ((to_rep2 x)) )))

;; "coerce_axiom"
(assert
  (forall ((x Int))
    (! (=> (in_range1 x) (= (to_rep2 (of_rep2 x)) x)) :pattern ((to_rep2
                                                                  (of_rep2 x))) )))

;; "in_range"
(define-fun in_range2 ((x Int)) Bool
  (and (<= 0 x) (<= x 2147483647)))

(declare-datatypes ()
  ((t (tqtmk (rec__first tinteger_32B)(rec__last tinteger_32B)))))

;; "mk"
(declare-fun mk (Int
  Int) t)

;; "mk_def"
(assert
  (forall ((f Int) (l Int))
    (! (=>
         (in_range1 f)
         (=>
           (in_range1 l)
           (and
             (= (to_rep2 (rec__first (mk f l))) f)
             (= (to_rep2 (rec__last (mk f l))) l)))) :pattern ((mk f l)) )))

(declare-datatypes ()
  ((us_t (us_tqtmk (elts map1)(rt t)))))

;; "to_array"
(define-fun to_array ((a us_t)) map1
  (elts a))

;; "of_array"
(define-fun of_array ((a map1) (f Int) (l Int)) us_t
  (us_tqtmk a (mk f l)))

;; "first"
(define-fun first ((a us_t)) Int
  (to_rep2 (rec__first (rt a))))

;; "last"
(define-fun last ((a us_t)) Int
  (to_rep2 (rec__last (rt a))))

;; "length"
(define-fun length1 ((a us_t)) Int
  (ite (<= (first a) (last a)) (+ (- (last a) (first a)) 1) 0))

;; "ada___sparknacl__scalar__gf_121665__aggregate_def"
(declare-fun ada___sparknacl__scalar__gf_121665__aggregate_def ((_ BitVec 16)
  (_ BitVec 16)
  (_ BitVec 16)) map2)

;; "sparknacl__gf_0__aggregate_def"
(declare-fun sparknacl__gf_0__aggregate_def ((_ BitVec 16)) map2)

;; "sparknacl__gf_1__aggregate_def"
(declare-fun sparknacl__gf_1__aggregate_def ((_ BitVec 16)
  (_ BitVec 16)) map2)

;; "gf_121665__def_axiom"
(assert
  (= gf_121665 (let ((temp___185 (ada___sparknacl__scalar__gf_121665__aggregate_def
                                   #xDB41
                                   #x0001
                                   #x0000)))
                 (let ((temp___186 temp___185)) temp___186))))

;; "def_axiom"
(assert
  (forall ((temp___179 (_ BitVec 16)) (temp___180 (_ BitVec 16)) (temp___181 (_ BitVec 16)))
    (let ((temp___182 (ada___sparknacl__scalar__gf_121665__aggregate_def
                        temp___179
                        temp___180
                        temp___181)))
      (and
        (and
          (and
            (= (to_rep1 (get1 temp___182 0)) temp___179)
            (= (to_rep1 (get1 temp___182 1)) temp___180))
          (=>
            (and (and (<= 0 0) (<= 0 15)) (and (<= 0 1) (<= 1 15)))
            (has_bounds1 temp___182 0 15)))
        (forall ((temp___183 Int))
          (! (=>
               (and (<= 0 temp___183) (<= temp___183 15))
               (=>
                 (and (not (= temp___183 0)) (not (= temp___183 1)))
                 (= (to_rep1 (get1 temp___182 temp___183)) temp___181))) :pattern (
          (get1
            temp___182
            temp___183)) ))))))

;; "gf_0__def_axiom"
(assert
  (= gf_0 (let ((temp___192 (sparknacl__gf_0__aggregate_def #x0000)))
            (let ((temp___193 temp___192)) temp___193))))

;; "def_axiom"
(assert
  (forall ((temp___188 (_ BitVec 16)))
    (let ((temp___189 (sparknacl__gf_0__aggregate_def temp___188)))
      (and
        (has_bounds1 temp___189 0 15)
        (forall ((temp___190 Int))
          (! (=>
               (and (<= 0 temp___190) (<= temp___190 15))
               (= (to_rep1 (get1 temp___189 temp___190)) temp___188)) :pattern (
          (get1
            temp___189
            temp___190)) ))))))

;; "gf_1__def_axiom"
(assert
  (= gf_1 (let ((temp___199 (sparknacl__gf_1__aggregate_def #x0001 #x0000)))
            (let ((temp___200 temp___199)) temp___200))))

;; "def_axiom"
(assert
  (forall ((temp___194 (_ BitVec 16)) (temp___195 (_ BitVec 16)))
    (let ((temp___196 (sparknacl__gf_1__aggregate_def temp___194 temp___195)))
      (and
        (and
          (= (to_rep1 (get1 temp___196 0)) temp___194)
          (=> (and (<= 0 0) (<= 0 15)) (has_bounds1 temp___196 0 15)))
        (forall ((temp___197 Int))
          (! (=>
               (and (<= 0 temp___197) (<= temp___197 15))
               (=>
                 (not (= temp___197 0))
                 (= (to_rep1 (get1 temp___196 temp___197)) temp___195))) :pattern (
          (get1
            temp___196
            temp___197)) ))))))

(declare-const swap Bool)

(declare-const cb (_ BitVec 8))

(declare-const shift Int)

(declare-const a map2)

(declare-const b map2)

(declare-const c map2)

(declare-const d map2)

(declare-const e map2)

(declare-const f map2)

(declare-const t1 map2)

(declare-const t2 map2)

(declare-const result__ map1)

;; "result__'unused"
(define-fun result__qtunused () map__ref
  (map__refqtmk result__))

;; "t2'unused"
(define-fun t2qtunused () map__ref1
  (map__refqtmk1 t2))

;; "t1'unused"
(define-fun t1qtunused () map__ref1
  (map__refqtmk1 t1))

;; "f'unused"
(define-fun fqtunused () map__ref1
  (map__refqtmk1 f))

;; "e'unused"
(define-fun eqtunused () map__ref1
  (map__refqtmk1 e))

;; "d'unused"
(define-fun dqtunused () map__ref1
  (map__refqtmk1 d))

;; "c'unused"
(define-fun cqtunused () map__ref1
  (map__refqtmk1 c))

;; "b'unused"
(define-fun bqtunused () map__ref1
  (map__refqtmk1 b))

;; "a'unused"
(define-fun aqtunused () map__ref1
  (map__refqtmk1 a))

;; "shift'unused"
(define-fun shiftqtunused () int__ref
  (int__refqtmk shift))

;; "cb'unused"
(define-fun cbqtunused () t__ref
  (t__refqtmk cb))

;; "swap'unused"
(define-fun swapqtunused () bool__ref
  (bool__refqtmk swap))

;; "Assume"
(assert (has_bounds1 gf_121665 0 15))

(declare-const temp___511 map2)

;; "H"
(assert (= (to_rep1 (get1 temp___511 0)) #xDB41))

;; "H"
(assert (= (to_rep1 (get1 temp___511 1)) #x0001))

;; "H"
(assert (has_bounds1 temp___511 0 15))

;; "H"
(assert
  (forall ((temp___184 Int))
    (! (=>
         (and (<= 0 temp___184) (<= temp___184 15))
         (=>
           (and (not (= temp___184 0)) (not (= temp___184 1)))
           (= (to_rep1 (get1 temp___511 temp___184)) #x0000))) :pattern (
    (get1
      temp___511
      temp___184)) )))

;; "H"
(assert
  (= temp___511 (ada___sparknacl__scalar__gf_121665__aggregate_def
                  #xDB41
                  #x0001
                  #x0000)))

;; "ada___sparknacl__scalar__gf_121665__aggregate_def'result'unused"
(define-fun ada___sparknacl__scalar__gf_121665__aggregate_defqtresultqtunused 
  () map2
  temp___511)

;; "Assume"
(assert (= temp___511 gf_121665))

;; "Assume"
(assert (has_bounds1 gf_0 0 15))

(declare-const temp___516 map2)

;; "H"
(assert (has_bounds1 temp___516 0 15))

;; "H"
(assert
  (forall ((temp___191 Int))
    (! (=>
         (and (<= 0 temp___191) (<= temp___191 15))
         (= (to_rep1 (get1 temp___516 temp___191)) #x0000)) :pattern (
    (get1
      temp___516
      temp___191)) )))

;; "H"
(assert (= temp___516 (sparknacl__gf_0__aggregate_def #x0000)))

;; "sparknacl__gf_0__aggregate_def'result'unused"
(define-fun sparknacl__gf_0__aggregate_defqtresultqtunused () map2
  temp___516)

;; "Assume"
(assert (= temp___516 gf_0))

;; "Assume"
(assert (has_bounds1 gf_1 0 15))

(declare-const temp___522 map2)

;; "H"
(assert (= (to_rep1 (get1 temp___522 0)) #x0001))

;; "H"
(assert (has_bounds1 temp___522 0 15))

;; "H"
(assert
  (forall ((temp___198 Int))
    (! (=>
         (and (<= 0 temp___198) (<= temp___198 15))
         (=>
           (not (= temp___198 0))
           (= (to_rep1 (get1 temp___522 temp___198)) #x0000))) :pattern (
    (get1
      temp___522
      temp___198)) )))

;; "H"
(assert (= temp___522 (sparknacl__gf_1__aggregate_def #x0001 #x0000)))

;; "sparknacl__gf_1__aggregate_def'result'unused"
(define-fun sparknacl__gf_1__aggregate_defqtresultqtunused () map2
  temp___522)

;; "Assume"
(assert (= temp___522 gf_1))

;; "Assume"
(assert (has_bounds n 0 31))

;; "Assume"
(assert (has_bounds p 0 31))

;; "o"
(define-fun o () map1
  p)

;; "o"
(define-fun o1 () map2
  (unpack_25519 o))

;; "H"
(assert (unpack_25519__function_guard o1 o))

;; "H"
(assert (has_bounds1 o1 0 15))

;; "unpack_25519'result'unused"
(define-fun unpack_25519qtresultqtunused () map2
  o1)

(declare-const x map2)

;; "x'unused"
(define-fun xqtunused () map__ref1
  (map__refqtmk1 x))

;; "H"
(assert (= x o1))

;; "Assume"
(assert (has_bounds1 x 0 15))

(declare-const temp___415 us_t)

(declare-const o2 byte)

;; "H"
(assert (= o2 (get n 31)))

(declare-const getqtresultqtunused byte)

;; "H"
(assert (= getqtresultqtunused o2))

(declare-const o3 (_ BitVec 8))

;; "Ensures"
(assert (= (to_rep o2) o3))

(declare-const to_repqtresultqtunused (_ BitVec 8))

;; "H"
(assert (= to_repqtresultqtunused o3))

(declare-const o4 (_ BitVec 8))

;; "H"
(assert (= o4 (bvand o3 #x7F)))

(declare-const bw_andqtresultqtunused (_ BitVec 8))

;; "H"
(assert (= bw_andqtresultqtunused o4))

(declare-const temp___414 (_ BitVec 8))

;; "H"
(assert (= temp___414 (bvor o4 #x40)))

(declare-const bw_orqtresultqtunused (_ BitVec 8))

;; "H"
(assert (= bw_orqtresultqtunused temp___414))

;; "Assert"
(assert
  (=> (<= 1 30) (and (and (<= 0 1) (<= 1 31)) (and (<= 0 30) (<= 30 31)))))

(declare-const temp___412 map1)

;; "H"
(assert (= temp___412 (slice n 1 30)))

(declare-const sliceqtresultqtunused map1)

;; "H"
(assert (= sliceqtresultqtunused temp___412))

(declare-const o5 byte)

;; "H"
(assert (= o5 (get n 0)))

(declare-const getqtresultqtunused1 byte)

;; "H"
(assert (= getqtresultqtunused1 o5))

(declare-const o6 (_ BitVec 8))

;; "Ensures"
(assert (= (to_rep o5) o6))

(declare-const to_repqtresultqtunused1 (_ BitVec 8))

;; "H"
(assert (= to_repqtresultqtunused1 o6))

(declare-const temp___411 (_ BitVec 8))

;; "H"
(assert (= temp___411 (bvand o6 #xF8)))

(declare-const bw_andqtresultqtunused1 (_ BitVec 8))

;; "H"
(assert (= bw_andqtresultqtunused1 temp___411))

(declare-const o7 Int)

;; "H"
(assert (= o7 (length 1 30)))

(declare-const lengthqtresultqtunused Int)

;; "H"
(assert (= lengthqtresultqtunused o7))

(declare-const o8 Int)

;; "H"
(assert (= o8 (+ 1 o7)))

(declare-const infix_plqtresultqtunused Int)

;; "H"
(assert (= infix_plqtresultqtunused o8))

(declare-const o9 Int)

;; "H"
(assert (= o9 (+ 0 o8)))

(declare-const infix_plqtresultqtunused1 Int)

;; "H"
(assert (= infix_plqtresultqtunused1 o9))

(declare-const o10 Int)

;; "H"
(assert (= o10 (- o9 1)))

(declare-const infix_mnqtresultqtunused Int)

;; "H"
(assert (= infix_mnqtresultqtunused o10))

;; "Ensures"
(assert (in_range2 o10))

(declare-const range_check_qtresultqtunused Int)

;; "H"
(assert (= range_check_qtresultqtunused o10))

(declare-const o11 Int)

;; "H"
(assert (= o11 (length 1 30)))

(declare-const lengthqtresultqtunused1 Int)

;; "H"
(assert (= lengthqtresultqtunused1 o11))

(declare-const o12 Int)

;; "H"
(assert (= o12 (+ 0 o11)))

(declare-const infix_plqtresultqtunused2 Int)

;; "H"
(assert (= infix_plqtresultqtunused2 o12))

(declare-const o13 byte)

;; "Ensures"
(assert (= (to_rep o13) temp___411))

(declare-const of_repqtresultqtunused byte)

;; "H"
(assert (= of_repqtresultqtunused o13))

(declare-const o14 map1)

;; "H"
(assert (= o14 (concat_singleton_left o13 0 temp___412 1 30 o12)))

(declare-const concat_singleton_leftqtresultqtunused map1)

;; "H"
(assert (= concat_singleton_leftqtresultqtunused o14))

(declare-const temp___413 us_t)

;; "H"
(assert (= temp___413 (of_array o14 0 o10)))

(declare-const of_arrayqtresultqtunused us_t)

;; "H"
(assert (= of_arrayqtresultqtunused temp___413))

(declare-const o15 Int)

;; "H"
(assert (= o15 (length1 temp___413)))

(declare-const lengthqtresultqtunused2 Int)

;; "H"
(assert (= lengthqtresultqtunused2 o15))

(declare-const infix_eqqtresultqtunused Bool)

;; "H"
(assert (= infix_eqqtresultqtunused (ite (= o15 0) true false)))

(declare-const o16 Int)

(declare-const lastqtresultqtunused Int)

(declare-const o17 Int)

(declare-const firstqtresultqtunused Int)

(declare-const o18 Int)

(declare-const lengthqtresultqtunused3 Int)

(declare-const o19 Int)

(declare-const infix_plqtresultqtunused3 Int)

(declare-const o20 Int)

(declare-const firstqtresultqtunused1 Int)

(declare-const o21 Int)

(declare-const infix_plqtresultqtunused4 Int)

(declare-const o22 Int)

(declare-const infix_mnqtresultqtunused1 Int)

(declare-const range_check_qtresultqtunused1 Int)

(declare-const o23 Int)

(declare-const firstqtresultqtunused2 Int)

(declare-const o24 Int)

(declare-const infix_plqtresultqtunused5 Int)

(declare-const o25 byte)

(declare-const of_repqtresultqtunused1 byte)

(declare-const o26 Int)

(declare-const lastqtresultqtunused1 Int)

(declare-const o27 Int)

(declare-const firstqtresultqtunused3 Int)

(declare-const o28 map1)

(declare-const to_arrayqtresultqtunused map1)

(declare-const o29 map1)

(declare-const concat_singleton_rightqtresultqtunused map1)

(declare-const of_arrayqtresultqtunused1 us_t)

(declare-const o30 byte)

(declare-const of_repqtresultqtunused2 byte)

(declare-const o31 map1)

(declare-const singletonqtresultqtunused map1)

(declare-const of_arrayqtresultqtunused2 us_t)

;; "H"
(assert
  (ite (= o15 0)
    (and
      (= (to_rep o30) temp___414)
      (and
        (= of_repqtresultqtunused2 o30)
        (and
          (= o31 (singleton1 o30 0))
          (and
            (= singletonqtresultqtunused o31)
            (and
              (= temp___415 (of_array o31 0 0))
              (= of_arrayqtresultqtunused2 temp___415))))))
    (and
      (= o16 o10)
      (and
        (= lastqtresultqtunused o16)
        (and
          (= o17 0)
          (and
            (= firstqtresultqtunused o17)
            (and
              (= o18 (length o17 o16))
              (and
                (= lengthqtresultqtunused3 o18)
                (and
                  (= o19 (+ o18 1))
                  (and
                    (= infix_plqtresultqtunused3 o19)
                    (and
                      (= o20 0)
                      (and
                        (= firstqtresultqtunused1 o20)
                        (and
                          (= o21 (+ o20 o19))
                          (and
                            (= infix_plqtresultqtunused4 o21)
                            (and
                              (= o22 (- o21 1))
                              (and
                                (= infix_mnqtresultqtunused1 o22)
                                (and
                                  (in_range2 o22)
                                  (and
                                    (= range_check_qtresultqtunused1 
                                    o22)
                                    (and
                                      (= o23 0)
                                      (and
                                        (= firstqtresultqtunused2 o23)
                                        (and
                                          (= o24 (+ 2147483647 1))
                                          (and
                                            (= infix_plqtresultqtunused5 
                                            o24)
                                            (and
                                              (= (to_rep o25) temp___414)
                                              (and
                                                (= of_repqtresultqtunused1 
                                                o25)
                                                (and
                                                  (= o26 o10)
                                                  (and
                                                    (= lastqtresultqtunused1 
                                                    o26)
                                                    (and
                                                      (= o27 0)
                                                      (and
                                                        (= firstqtresultqtunused3 
                                                        o27)
                                                        (and
                                                          (= o28 o14)
                                                          (and
                                                            (= to_arrayqtresultqtunused 
                                                            o28)
                                                            (and
                                                              (= o29 
                                                              (concat_singleton_right
                                                                o28
                                                                o27
                                                                o26
                                                                o25
                                                                o24))
                                                              (and
                                                                (= concat_singleton_rightqtresultqtunused 
                                                                o29)
                                                                (and
                                                                  (= 
                                                                  temp___415 
                                                                  (of_array
                                                                    o29
                                                                    o23
                                                                    o22))
                                                                  (= 
                                                                  of_arrayqtresultqtunused1 
                                                                  temp___415))))))))))))))))))))))))))))))))))

;; "o"
(define-fun o32 () Int
  (first temp___415))

;; "first'result'unused"
(define-fun firstqtresultqtunused4 () Int
  o32)

;; "o"
(define-fun o33 () map1
  (to_array temp___415))

;; "to_array'result'unused"
(define-fun to_arrayqtresultqtunused1 () map1
  o33)

;; "temp___416"
(define-fun temp___416 () map1
  (slide o33 o32 0))

;; "slide'result'unused"
(define-fun slideqtresultqtunused () map1
  temp___416)

;; "Assert"
(assert
  (ite (<= (first temp___415) (last temp___415))
    (and (<= 0 31) (= (- (last temp___415) (first temp___415)) (- 31 0)))
    (< 31 0)))

(declare-const z map1)

;; "z'unused"
(define-fun zqtunused () map__ref
  (map__refqtmk z))

;; "H"
(assert (= z temp___416))

;; "Assume"
(assert (has_bounds z 0 31))

;; "Assume"
(assert true)

;; "Assume"
(assert true)

;; "Assume"
(assert true)

;; "Assume"
(assert (in_range shift))

;; "Assume"
(assert true)

;; "Assume"
(assert (has_bounds1 a 0 15))

;; "Assume"
(assert true)

;; "Assume"
(assert (has_bounds1 b 0 15))

;; "Assume"
(assert true)

;; "Assume"
(assert (has_bounds1 c 0 15))

;; "Assume"
(assert true)

;; "Assume"
(assert (has_bounds1 d 0 15))

;; "Assume"
(assert true)

;; "Assume"
(assert (has_bounds1 e 0 15))

;; "Assume"
(assert true)

;; "Assume"
(assert (has_bounds1 f 0 15))

;; "Assume"
(assert true)

;; "Assume"
(assert (has_bounds1 t1 0 15))

;; "Assume"
(assert true)

;; "Assume"
(assert (has_bounds1 t2 0 15))

;; "Assume"
(assert true)

;; "Assume"
(assert (has_bounds result__ 0 31))

;; "map__content'result'unused"
(define-fun map__contentqtresultqtunused () map2
  x)

(declare-const b1 map2)

;; "b'unused"
(define-fun bqtunused1 () map__ref1
  (map__refqtmk1 b1))

;; "H"
(assert (= b1 x))

(declare-const c1 map2)

;; "c'unused"
(define-fun cqtunused1 () map__ref1
  (map__refqtmk1 c1))

;; "H"
(assert (= c1 gf_0))

(declare-const a1 map2)

;; "a'unused"
(define-fun aqtunused1 () map__ref1
  (map__refqtmk1 a1))

;; "H"
(assert (= a1 gf_1))

(declare-const d1 map2)

;; "d'unused"
(define-fun dqtunused1 () map__ref1
  (map__refqtmk1 d1))

;; "H"
(assert (= d1 gf_1))

(declare-const i (_ BitVec 32))

;; "i'unused"
(define-fun iqtunused () t__ref1
  (t__refqtmk1 i))

;; "H"
(assert (= i #x000000FE))

;; "t__content'result'unused"
(define-fun t__contentqtresultqtunused () (_ BitVec 32)
  i)

;; "o"
(define-fun o34 () Bool
  (ite (bvule i #x000000FE) true false))

;; "ule'result'unused"
(define-fun uleqtresultqtunused () Bool
  o34)

;; "t__content'result'unused"
(define-fun t__contentqtresultqtunused1 () (_ BitVec 32)
  i)

;; "o"
(define-fun o35 () Bool
  (ite (bvule #x00000000 i) true false))

;; "ule'result'unused"
(define-fun uleqtresultqtunused1 () Bool
  o35)

;; "o"
(define-fun o36 () Bool
  (and o35 o34))

;; "andb'result'unused"
(define-fun andbqtresultqtunused () Bool
  o36)

;; "H"
(assert (= o36 true))

;; "temp___loop_entry_481'unused"
(define-fun temp___loop_entry_481qtunused () map2
  t2)

;; "map__content'result'unused"
(define-fun map__contentqtresultqtunused1 () map2
  t2)

;; "temp___loop_entry_479'unused"
(define-fun temp___loop_entry_479qtunused () map2
  t1)

;; "map__content'result'unused"
(define-fun map__contentqtresultqtunused2 () map2
  t1)

;; "temp___loop_entry_477'unused"
(define-fun temp___loop_entry_477qtunused () map2
  f)

;; "map__content'result'unused"
(define-fun map__contentqtresultqtunused3 () map2
  f)

;; "temp___loop_entry_475'unused"
(define-fun temp___loop_entry_475qtunused () map2
  e)

;; "map__content'result'unused"
(define-fun map__contentqtresultqtunused4 () map2
  e)

;; "temp___loop_entry_473'unused"
(define-fun temp___loop_entry_473qtunused () map2
  d1)

;; "map__content'result'unused"
(define-fun map__contentqtresultqtunused5 () map2
  d1)

;; "temp___loop_entry_471'unused"
(define-fun temp___loop_entry_471qtunused () map2
  c1)

;; "map__content'result'unused"
(define-fun map__contentqtresultqtunused6 () map2
  c1)

;; "temp___loop_entry_469'unused"
(define-fun temp___loop_entry_469qtunused () map2
  b1)

;; "map__content'result'unused"
(define-fun map__contentqtresultqtunused7 () map2
  b1)

;; "temp___loop_entry_467'unused"
(define-fun temp___loop_entry_467qtunused () map2
  a1)

;; "map__content'result'unused"
(define-fun map__contentqtresultqtunused8 () map2
  a1)

;; "temp___loop_entry_465'unused"
(define-fun temp___loop_entry_465qtunused () Int
  shift)

;; "int__content'result'unused"
(define-fun int__contentqtresultqtunused () Int
  shift)

;; "temp___loop_entry_464'unused"
(define-fun temp___loop_entry_464qtunused () (_ BitVec 8)
  cb)

;; "t__content'result'unused"
(define-fun t__contentqtresultqtunused2 () (_ BitVec 8)
  cb)

;; "temp___loop_entry_463'unused"
(define-fun temp___loop_entry_463qtunused () Bool
  swap)

;; "bool__content'result'unused"
(define-fun bool__contentqtresultqtunused () Bool
  swap)

;; "o"
(define-fun o37 () (_ BitVec 32)
  ((_ int2bv 32) 3))

;; "of_int'result'unused"
(define-fun of_intqtresultqtunused () (_ BitVec 32)
  o37)

;; "t__content'result'unused"
(define-fun t__contentqtresultqtunused3 () (_ BitVec 32)
  i)

;; "o"
(define-fun o38 () (_ BitVec 32)
  (bvlshr i o37))

;; "lsr_bv'result'unused"
(define-fun lsr_bvqtresultqtunused () (_ BitVec 32)
  o38)

;; "o"
(define-fun o39 () Int
  (bv2int o38))

;; "t_int'result'unused"
(define-fun t_intqtresultqtunused () Int
  o39)

;; Goal "def'vc"
;; File "sparknacl-scalar.ads", line 9, characters 0-0
(assert
  (not (<= o39 2147483647)))

(check-sat)
